(set-option :produce-models true); benchmark generated from python API
(set-info :status unknown)
(declare-fun l_0_0_7 () Real)
(declare-fun l_0_0_1 () Real)
(declare-fun _a_0_ () Real)
(declare-fun l_0_0_8 () Real)
(declare-fun l_0_0_2 () Real)
(declare-fun _a_1_ () Real)
(declare-fun l_0_0_9 () Real)
(declare-fun l_0_0_3 () Real)
(declare-fun _a_2_ () Real)
(declare-fun l_0_0_6 () Real)
(declare-fun l_0_0_5 () Real)
(declare-fun l_0_0_4 () Real)
(declare-fun l_0_0_12 () Real)
(declare-fun l_0_0_11 () Real)
(declare-fun l_0_0_10 () Real)
(declare-fun _a_3_ () Real)
(declare-fun _a_4_ () Real)
(declare-fun _a_5_ () Real)
(declare-fun l_0_1_7 () Real)
(declare-fun l_0_1_13 () Real)
(declare-fun l_0_1_1 () Real)
(declare-fun l_0_1_8 () Real)
(declare-fun l_0_1_14 () Real)
(declare-fun l_0_1_2 () Real)
(declare-fun l_0_1_18 () Real)
(declare-fun l_0_1_17 () Real)
(declare-fun l_0_1_16 () Real)
(declare-fun l_0_1_12 () Real)
(declare-fun l_0_1_11 () Real)
(declare-fun l_0_1_10 () Real)
(declare-fun l_0_1_4 () Real)
(declare-fun l_0_1_6 () Real)
(declare-fun l_0_1_5 () Real)
(declare-fun l_0_1_9 () Real)
(declare-fun l_0_1_15 () Real)
(declare-fun l_0_1_3 () Real)
(declare-fun l_0_2_7 () Real)
(declare-fun l_0_2_13 () Real)
(declare-fun l_0_2_1 () Real)
(declare-fun l_0_2_17 () Real)
(declare-fun l_0_2_15 () Real)
(declare-fun l_0_2_16 () Real)
(declare-fun l_0_2_14 () Real)
(declare-fun l_0_2_9 () Real)
(declare-fun l_0_2_11 () Real)
(declare-fun l_0_2_8 () Real)
(declare-fun l_0_2_10 () Real)
(declare-fun l_0_2_2 () Real)
(declare-fun l_0_2_4 () Real)
(declare-fun l_0_2_5 () Real)
(declare-fun l_0_2_3 () Real)
(declare-fun l_0_2_12 () Real)
(declare-fun l_0_2_6 () Real)
(declare-fun l_0_2_18 () Real)
(assert
 (let ((?x63 (* l_0_0_7 l_0_0_7)))
 (= (- (- _a_0_ (* (* 1.0 l_0_0_1) l_0_0_1)) ?x63) 0.0)))
(assert
 (let ((?x99 (- (- _a_1_ (* (* 2.0 l_0_0_1) l_0_0_2)) (* (* 2.0 l_0_0_7) l_0_0_8))))
 (= ?x99 0.0)))
(assert
 (let ((?x124 (* l_0_0_9 l_0_0_9)))
 (let ((?x122 (* l_0_0_8 l_0_0_8)))
 (let ((?x85 (* l_0_0_1 l_0_0_1)))
 (let ((?x115 (+ _a_2_ ?x85)))
 (let ((?x121 (- (- ?x115 (* (* 1.0 l_0_0_2) l_0_0_2)) (* (* 1.0 l_0_0_3) l_0_0_3))))
 (= (- (- ?x121 ?x122) ?x124) 0.0)))))))
(assert
 (let ((?x147 (* l_0_0_12 l_0_0_12)))
 (let ((?x145 (* l_0_0_11 l_0_0_11)))
 (let ((?x146 (- (- (+ _a_3_ (* l_0_0_1 l_0_0_1)) (* l_0_0_10 l_0_0_10)) ?x145)))
 (let ((?x154 (- (- (- ?x146 ?x147) (* (* 1.0 l_0_0_4) l_0_0_4)) (* (* 1.0 l_0_0_5) l_0_0_5))))
 (= (- ?x154 (* (* 1.0 l_0_0_6) l_0_0_6)) 0.0))))))
(assert
 (let ((?x191 (* (* 2.0 l_0_0_3) l_0_0_5)))
 (let ((?x188 (* (* 2.0 l_0_0_2) l_0_0_4)))
 (let ((?x186 (- (- _a_4_ (* (* 2.0 l_0_0_10) l_0_0_8)) (* (* 2.0 l_0_0_11) l_0_0_9))))
 (= (- (- ?x186 ?x188) ?x191) 0.0)))))
(assert
 (let ((?x222 (- (- _a_5_ (* (* 2.0 l_0_0_1) l_0_0_4)) (* (* 2.0 l_0_0_10) l_0_0_7))))
 (= ?x222 0.0)))
(assert
 (let ((?x94 (* 2.0 l_0_0_1)))
 (let ((?x95 (* ?x94 l_0_0_2)))
 (= ?x95 0.0))))
(assert
 (let ((?x94 (* 2.0 l_0_0_1)))
 (let ((?x219 (* ?x94 l_0_0_4)))
 (= ?x219 0.0))))
(assert
 (let ((?x176 (* l_0_0_6 l_0_0_6)))
 (let ((?x172 (* l_0_0_5 l_0_0_5)))
 (let ((?x168 (* l_0_0_4 l_0_0_4)))
 (let ((?x131 (* l_0_0_3 l_0_0_3)))
 (let ((?x127 (* l_0_0_2 l_0_0_2)))
 (let ((?x241 (+ ?x127 ?x131)))
 (= (+ (+ (+ ?x241 ?x168) ?x172) ?x176) 0.0))))))))
(assert
 (let ((?x191 (* (* 2.0 l_0_0_3) l_0_0_5)))
 (let ((?x188 (* (* 2.0 l_0_0_2) l_0_0_4)))
 (= (+ ?x188 ?x191) 0.0))))
(assert
 (let ((?x176 (* l_0_0_6 l_0_0_6)))
 (= (+ (+ (* l_0_0_4 l_0_0_4) (* l_0_0_5 l_0_0_5)) ?x176) 0.0)))
(assert
 (let ((?x94 (* 2.0 l_0_0_1)))
 (let ((?x95 (* ?x94 l_0_0_2)))
 (= ?x95 0.0))))
(assert
 (let ((?x94 (* 2.0 l_0_0_1)))
 (let ((?x219 (* ?x94 l_0_0_4)))
 (= ?x219 0.0))))
(assert
 (let ((?x131 (* l_0_0_3 l_0_0_3)))
 (let ((?x127 (* l_0_0_2 l_0_0_2)))
 (let ((?x241 (+ ?x127 ?x131)))
 (= ?x241 0.0)))))
(assert
 (let ((?x191 (* (* 2.0 l_0_0_3) l_0_0_5)))
 (let ((?x188 (* (* 2.0 l_0_0_2) l_0_0_4)))
 (= (+ ?x188 ?x191) 0.0))))
(assert
 (>= l_0_0_1 0.0))
(assert
 (>= l_0_0_3 0.0))
(assert
 (>= l_0_0_6 0.0))
(assert
 (>= l_0_0_7 0.0))
(assert
 (>= l_0_0_9 0.0))
(assert
 (>= l_0_0_12 0.0))
(assert
 (let ((?x272 (+ (- (* (* (- _a_0_) l_0_1_1) l_0_1_1) (* l_0_1_13 l_0_1_13)) (* 3.0 (* l_0_1_7 l_0_1_7)))))
 (= (+ ?x272 1.0) 0.0)))
(assert
 (let ((?x290 (- (* (* (* (- 2.0) _a_0_) l_0_1_1) l_0_1_2) (* (* _a_1_ l_0_1_1) l_0_1_1))))
 (let ((?x297 (+ (- ?x290 (* (* 2.0 l_0_1_13) l_0_1_14)) (* (* 6.0 l_0_1_7) l_0_1_8))))
 (= (+ ?x297 1.0) 0.0))))
(assert
 (let ((?x269 (* l_0_1_7 l_0_1_7)))
 (let ((?x344 (* l_0_1_18 l_0_1_18)))
 (let ((?x342 (* l_0_1_17 l_0_1_17)))
 (let ((?x340 (* l_0_1_16 l_0_1_16)))
 (let ((?x337 (* l_0_1_12 l_0_1_12)))
 (let ((?x338 (* 3.0 ?x337)))
 (let ((?x334 (* l_0_1_11 l_0_1_11)))
 (let ((?x335 (* 3.0 ?x334)))
 (let ((?x331 (* l_0_1_10 l_0_1_10)))
 (let ((?x332 (* 3.0 ?x331)))
 (let ((?x321 (* l_0_1_6 l_0_1_6)))
 (let ((?x322 (+ (+ (* l_0_1_4 l_0_1_4) (* l_0_1_5 l_0_1_5)) ?x321)))
 (let ((?x264 (- _a_0_)))
 (let ((?x330 (- (- (* ?x264 ?x322) (* (* _a_3_ l_0_1_1) l_0_1_1)) (* (* (* 2.0 _a_5_) l_0_1_1) l_0_1_4))))
 (let ((?x346 (- (- (- (- (+ (+ (+ ?x330 ?x332) ?x335) ?x338) ?x340) ?x342) ?x344) ?x269)))
 (= (- ?x346 (/ 1.0 5.0)) 0.0)))))))))))))))))
(assert
 (let ((?x392 (- (* (* (* (- 2.0) _a_0_) l_0_1_1) l_0_1_4) (* (* _a_5_ l_0_1_1) l_0_1_1))))
 (let ((?x397 (- (+ ?x392 (* (* 6.0 l_0_1_10) l_0_1_7)) (* (* 2.0 l_0_1_13) l_0_1_16))))
 (= ?x397 0.0))))
(assert
 (let ((?x269 (* l_0_1_7 l_0_1_7)))
 (let ((?x432 (* l_0_1_15 l_0_1_15)))
 (let ((?x430 (* l_0_1_14 l_0_1_14)))
 (let ((?x426 (- (* (- _a_0_) (+ (* l_0_1_2 l_0_1_2) (* l_0_1_3 l_0_1_3))) (* (* (* 2.0 _a_1_) l_0_1_1) l_0_1_2))))
 (let ((?x434 (- (- (- (- ?x426 (* (* _a_2_ l_0_1_1) l_0_1_1)) ?x430) ?x432) ?x269)))
 (let ((?x440 (+ (+ ?x434 (* 3.0 (* l_0_1_8 l_0_1_8))) (* 3.0 (* l_0_1_9 l_0_1_9)))))
 (= ?x440 0.0))))))))
(assert
 (let ((?x473 (+ (* (* 2.0 l_0_1_2) l_0_1_4) (* (* 2.0 l_0_1_3) l_0_1_5))))
 (let ((?x264 (- _a_0_)))
 (let ((?x479 (- (- (* ?x264 ?x473) (* (* (* 2.0 _a_1_) l_0_1_1) l_0_1_4)) (* (* _a_4_ l_0_1_1) l_0_1_1))))
 (let ((?x483 (+ (- ?x479 (* (* (* 2.0 _a_5_) l_0_1_1) l_0_1_2)) (* (* 6.0 l_0_1_10) l_0_1_8))))
 (let ((?x489 (- (+ ?x483 (* (* 6.0 l_0_1_11) l_0_1_9)) (* (* 2.0 l_0_1_14) l_0_1_16))))
 (= (- ?x489 (* (* 2.0 l_0_1_15) l_0_1_17)) 0.0)))))))
(assert
 (let ((?x549 (* (* 2.0 l_0_1_7) l_0_1_8)))
 (let ((?x547 (- (* (- _a_1_) (+ (* l_0_1_2 l_0_1_2) (* l_0_1_3 l_0_1_3))) (* (* (* 2.0 _a_2_) l_0_1_1) l_0_1_2))))
 (= (- ?x547 ?x549) 0.0))))
(assert
 (let ((?x580 (* 2.0 l_0_1_10)))
 (let ((?x581 (* ?x580 l_0_1_7)))
 (let ((?x473 (+ (* (* 2.0 l_0_1_2) l_0_1_4) (* (* 2.0 l_0_1_3) l_0_1_5))))
 (let ((?x542 (- _a_1_)))
 (let ((?x577 (- (- (* ?x542 ?x473) (* (* (* 2.0 _a_2_) l_0_1_1) l_0_1_4)) (* (* (* 2.0 _a_4_) l_0_1_1) l_0_1_2))))
 (let ((?x579 (- ?x577 (* _a_5_ (+ (* l_0_1_2 l_0_1_2) (* l_0_1_3 l_0_1_3))))))
 (= (- ?x579 ?x581) 0.0))))))))
(assert
 (let ((?x549 (* (* 2.0 l_0_1_7) l_0_1_8)))
 (let ((?x473 (+ (* (* 2.0 l_0_1_2) l_0_1_4) (* (* 2.0 l_0_1_3) l_0_1_5))))
 (let ((?x321 (* l_0_1_6 l_0_1_6)))
 (let ((?x322 (+ (+ (* l_0_1_4 l_0_1_4) (* l_0_1_5 l_0_1_5)) ?x321)))
 (let ((?x542 (- _a_1_)))
 (let ((?x628 (- (- (* ?x542 ?x322) (* (* (* 2.0 _a_3_) l_0_1_1) l_0_1_2)) (* (* (* 2.0 _a_4_) l_0_1_1) l_0_1_4))))
 (= (- (- ?x628 (* _a_5_ ?x473)) ?x549) 0.0))))))))
(assert
 (let ((?x438 (* l_0_1_9 l_0_1_9)))
 (let ((?x435 (* l_0_1_8 l_0_1_8)))
 (let ((?x677 (- (* (- _a_2_) (+ (* l_0_1_2 l_0_1_2) (* l_0_1_3 l_0_1_3))) ?x435)))
 (= (- ?x677 ?x438) 0.0)))))
(assert
 (let ((?x700 (* (* 2.0 l_0_1_11) l_0_1_9)))
 (let ((?x580 (* 2.0 l_0_1_10)))
 (let ((?x697 (* ?x580 l_0_1_8)))
 (let ((?x473 (+ (* (* 2.0 l_0_1_2) l_0_1_4) (* (* 2.0 l_0_1_3) l_0_1_5))))
 (let ((?x675 (- _a_2_)))
 (let ((?x696 (- (* ?x675 ?x473) (* _a_4_ (+ (* l_0_1_2 l_0_1_2) (* l_0_1_3 l_0_1_3))))))
 (= (- (- ?x696 ?x697) ?x700) 0.0))))))))
(assert
 (let ((?x438 (* l_0_1_9 l_0_1_9)))
 (let ((?x435 (* l_0_1_8 l_0_1_8)))
 (let ((?x337 (* l_0_1_12 l_0_1_12)))
 (let ((?x334 (* l_0_1_11 l_0_1_11)))
 (let ((?x331 (* l_0_1_10 l_0_1_10)))
 (let ((?x473 (+ (* (* 2.0 l_0_1_2) l_0_1_4) (* (* 2.0 l_0_1_3) l_0_1_5))))
 (let ((?x321 (* l_0_1_6 l_0_1_6)))
 (let ((?x322 (+ (+ (* l_0_1_4 l_0_1_4) (* l_0_1_5 l_0_1_5)) ?x321)))
 (let ((?x675 (- _a_2_)))
 (let ((?x734 (- (* ?x675 ?x322) (* _a_3_ (+ (* l_0_1_2 l_0_1_2) (* l_0_1_3 l_0_1_3))))))
 (let ((?x741 (- (- (- (- (- (- ?x734 (* _a_4_ ?x473)) ?x331) ?x334) ?x337) ?x435) ?x438)))
 (= ?x741 0.0)))))))))))))
(assert
 (let ((?x580 (* 2.0 l_0_1_10)))
 (let ((?x581 (* ?x580 l_0_1_7)))
 (let ((?x321 (* l_0_1_6 l_0_1_6)))
 (let ((?x322 (+ (+ (* l_0_1_4 l_0_1_4) (* l_0_1_5 l_0_1_5)) ?x321)))
 (let ((?x799 (- (- (* (* (* (- 2.0) _a_3_) l_0_1_1) l_0_1_4) (* _a_5_ ?x322)) ?x581)))
 (= ?x799 0.0)))))))
(assert
 (let ((?x700 (* (* 2.0 l_0_1_11) l_0_1_9)))
 (let ((?x580 (* 2.0 l_0_1_10)))
 (let ((?x697 (* ?x580 l_0_1_8)))
 (let ((?x321 (* l_0_1_6 l_0_1_6)))
 (let ((?x322 (+ (+ (* l_0_1_4 l_0_1_4) (* l_0_1_5 l_0_1_5)) ?x321)))
 (let ((?x473 (+ (* (* 2.0 l_0_1_2) l_0_1_4) (* (* 2.0 l_0_1_3) l_0_1_5))))
 (let ((?x823 (- _a_3_)))
 (= (- (- (- (* ?x823 ?x473) (* _a_4_ ?x322)) ?x697) ?x700) 0.0)))))))))
(assert
 (let ((?x337 (* l_0_1_12 l_0_1_12)))
 (let ((?x334 (* l_0_1_11 l_0_1_11)))
 (let ((?x331 (* l_0_1_10 l_0_1_10)))
 (let ((?x321 (* l_0_1_6 l_0_1_6)))
 (let ((?x322 (+ (+ (* l_0_1_4 l_0_1_4) (* l_0_1_5 l_0_1_5)) ?x321)))
 (let ((?x823 (- _a_3_)))
 (= (- (- (- (* ?x823 ?x322) ?x331) ?x334) ?x337) 0.0))))))))
(assert
 (>= l_0_1_1 0.0))
(assert
 (>= l_0_1_3 0.0))
(assert
 (>= l_0_1_6 0.0))
(assert
 (>= l_0_1_7 0.0))
(assert
 (>= l_0_1_9 0.0))
(assert
 (>= l_0_1_12 0.0))
(assert
 (>= l_0_1_13 0.0))
(assert
 (>= l_0_1_15 0.0))
(assert
 (>= l_0_1_18 0.0))
(assert
 (let ((?x899 (* l_0_2_13 l_0_2_13)))
 (let ((?x895 (* 1.0 _a_4_)))
 (let ((?x890 (+ (+ (* (* (- _a_0_) l_0_2_1) l_0_2_1) _a_0_) (* 1.0 _a_1_))))
 (let ((?x898 (- (- (+ (+ ?x890 (* 1.0 _a_2_)) (* 1.0 _a_3_)) ?x895) (* 1.0 _a_5_))))
 (= (- (- ?x898 ?x899) (* (* 3.0 l_0_2_7) l_0_2_7)) 0.0))))))
(assert
 (let ((?x574 (* 2.0 _a_4_)))
 (let ((?x935 (* 4.0 _a_2_)))
 (let ((?x423 (* 2.0 _a_1_)))
 (let ((?x928 (+ (* (* 2.0 l_0_2_2) l_0_2_4) (* (* 2.0 l_0_2_3) l_0_2_5))))
 (let ((?x264 (- _a_0_)))
 (let ((?x936 (+ (+ (- (* ?x264 ?x928) (* (* ?x423 l_0_2_1) l_0_2_4)) ?x423) ?x935)))
 (let ((?x943 (- (- (- ?x936 (* (* _a_4_ l_0_2_1) l_0_2_1)) ?x574) (* (* (* 2.0 _a_5_) l_0_2_1) l_0_2_2))))
 (let ((?x949 (- (- ?x943 (* (* 6.0 l_0_2_10) l_0_2_8)) (* (* 6.0 l_0_2_11) l_0_2_9))))
 (let ((?x955 (- (- ?x949 (* (* 2.0 l_0_2_14) l_0_2_16)) (* (* 2.0 l_0_2_15) l_0_2_17))))
 (= ?x955 0.0)))))))))))
(assert
 (let ((?x917 (* l_0_2_7 l_0_2_7)))
 (let ((?x1027 (* l_0_2_15 l_0_2_15)))
 (let ((?x1025 (* l_0_2_14 l_0_2_14)))
 (let ((?x895 (* 1.0 _a_4_)))
 (let ((?x544 (* 2.0 _a_2_)))
 (let ((?x1017 (- (* (- _a_0_) (+ (* l_0_2_2 l_0_2_2) (* l_0_2_3 l_0_2_3))) (* (* (* 2.0 _a_1_) l_0_2_1) l_0_2_2))))
 (let ((?x1023 (+ (+ (- (+ ?x1017 _a_1_) (* (* _a_2_ l_0_2_1) l_0_2_1)) ?x544) _a_3_)))
 (let ((?x1032 (- (+ (- (- (- ?x1023 ?x895) ?x1025) ?x1027) ?x917) (* (* 3.0 l_0_2_8) l_0_2_8))))
 (= (- ?x1032 (* (* 3.0 l_0_2_9) l_0_2_9)) 0.0))))))))))
(assert
 (let ((?x1071 (* l_0_2_9 l_0_2_9)))
 (let ((?x1065 (* l_0_2_8 l_0_2_8)))
 (let ((?x1094 (* l_0_2_12 l_0_2_12)))
 (let ((?x1092 (* l_0_2_11 l_0_2_11)))
 (let ((?x1090 (* l_0_2_10 l_0_2_10)))
 (let ((?x928 (+ (* (* 2.0 l_0_2_2) l_0_2_4) (* (* 2.0 l_0_2_3) l_0_2_5))))
 (let ((?x935 (* 4.0 _a_2_)))
 (let ((?x1081 (* l_0_2_6 l_0_2_6)))
 (let ((?x1082 (+ (+ (* l_0_2_4 l_0_2_4) (* l_0_2_5 l_0_2_5)) ?x1081)))
 (let ((?x675 (- _a_2_)))
 (let ((?x1086 (- (+ (* ?x675 ?x1082) ?x935) (* _a_3_ (+ (* l_0_2_2 l_0_2_2) (* l_0_2_3 l_0_2_3))))))
 (let ((?x1096 (+ (+ (+ (+ (+ (- ?x1086 (* _a_4_ ?x928)) _a_4_) ?x1090) ?x1092) ?x1094) ?x1065)))
 (= (+ ?x1096 ?x1071) 0.0))))))))))))))
(assert
 (let ((?x1147 (* (* 2.0 l_0_2_11) l_0_2_9)))
 (let ((?x1143 (* 2.0 l_0_2_10)))
 (let ((?x1144 (* ?x1143 l_0_2_8)))
 (let ((?x935 (* 4.0 _a_2_)))
 (let ((?x928 (+ (* (* 2.0 l_0_2_2) l_0_2_4) (* (* 2.0 l_0_2_3) l_0_2_5))))
 (let ((?x675 (- _a_2_)))
 (let ((?x1142 (- (+ (* ?x675 ?x928) ?x935) (* _a_4_ (+ (* l_0_2_2 l_0_2_2) (* l_0_2_3 l_0_2_3))))))
 (= (+ (+ ?x1142 ?x1144) ?x1147) 0.0)))))))))
(assert
 (let ((?x1071 (* l_0_2_9 l_0_2_9)))
 (let ((?x1065 (* l_0_2_8 l_0_2_8)))
 (let ((?x1173 (+ (* (- _a_2_) (+ (* l_0_2_2 l_0_2_2) (* l_0_2_3 l_0_2_3))) _a_2_)))
 (= (+ (+ ?x1173 ?x1065) ?x1071) 0.0)))))
(assert
 (let ((?x1094 (* l_0_2_12 l_0_2_12)))
 (let ((?x1092 (* l_0_2_11 l_0_2_11)))
 (let ((?x1090 (* l_0_2_10 l_0_2_10)))
 (let ((?x1081 (* l_0_2_6 l_0_2_6)))
 (let ((?x1082 (+ (+ (* l_0_2_4 l_0_2_4) (* l_0_2_5 l_0_2_5)) ?x1081)))
 (let ((?x823 (- _a_3_)))
 (= (+ (+ (+ (+ (* ?x823 ?x1082) _a_3_) ?x1090) ?x1092) ?x1094) 0.0))))))))
(assert
 (let ((?x1211 (* (* 2.0 l_0_2_7) l_0_2_8)))
 (let ((?x928 (+ (* (* 2.0 l_0_2_2) l_0_2_4) (* (* 2.0 l_0_2_3) l_0_2_5))))
 (let ((?x623 (* 2.0 _a_3_)))
 (let ((?x1081 (* l_0_2_6 l_0_2_6)))
 (let ((?x1082 (+ (+ (* l_0_2_4 l_0_2_4) (* l_0_2_5 l_0_2_5)) ?x1081)))
 (let ((?x542 (- _a_1_)))
 (let ((?x1207 (- (+ (- (* ?x542 ?x1082) (* (* ?x623 l_0_2_1) l_0_2_2)) ?x623) (* (* (* 2.0 _a_4_) l_0_2_1) l_0_2_4))))
 (= (+ (- ?x1207 (* _a_5_ ?x928)) ?x1211) 0.0)))))))))
(assert
 (let ((?x917 (* l_0_2_7 l_0_2_7)))
 (let ((?x1277 (* l_0_2_18 l_0_2_18)))
 (let ((?x1275 (* l_0_2_17 l_0_2_17)))
 (let ((?x1273 (* l_0_2_16 l_0_2_16)))
 (let ((?x895 (* 1.0 _a_4_)))
 (let ((?x623 (* 2.0 _a_3_)))
 (let ((?x1081 (* l_0_2_6 l_0_2_6)))
 (let ((?x1082 (+ (+ (* l_0_2_4 l_0_2_4) (* l_0_2_5 l_0_2_5)) ?x1081)))
 (let ((?x264 (- _a_0_)))
 (let ((?x1260 (+ (- (- (* ?x264 ?x1082) (* (* _a_3_ l_0_2_1) l_0_2_1)) ?x623) ?x895)))
 (let ((?x1266 (- (+ (- ?x1260 (* (* (* 2.0 _a_5_) l_0_2_1) l_0_2_4)) _a_5_) (* (* 3.0 l_0_2_10) l_0_2_10))))
 (let ((?x1272 (- (- ?x1266 (* (* 3.0 l_0_2_11) l_0_2_11)) (* (* 3.0 l_0_2_12) l_0_2_12))))
 (= (+ (- (- (- ?x1272 ?x1273) ?x1275) ?x1277) ?x917) 0.0))))))))))))))
(assert
 (let ((?x895 (* 1.0 _a_4_)))
 (let ((?x623 (* 2.0 _a_3_)))
 (let ((?x1335 (- (* (* (* (- 2.0) _a_0_) l_0_2_1) l_0_2_2) (* (* _a_1_ l_0_2_1) l_0_2_1))))
 (let ((?x1341 (- (+ (+ (- ?x1335 ?x623) ?x895) _a_5_) (* (* 2.0 l_0_2_13) l_0_2_14))))
 (= (- ?x1341 (* (* 6.0 l_0_2_7) l_0_2_8)) 0.0))))))
(assert
 (let ((?x1147 (* (* 2.0 l_0_2_11) l_0_2_9)))
 (let ((?x1143 (* 2.0 l_0_2_10)))
 (let ((?x1144 (* ?x1143 l_0_2_8)))
 (let ((?x574 (* 2.0 _a_4_)))
 (let ((?x1081 (* l_0_2_6 l_0_2_6)))
 (let ((?x1082 (+ (+ (* l_0_2_4 l_0_2_4) (* l_0_2_5 l_0_2_5)) ?x1081)))
 (let ((?x928 (+ (* (* 2.0 l_0_2_2) l_0_2_4) (* (* 2.0 l_0_2_3) l_0_2_5))))
 (let ((?x823 (- _a_3_)))
 (= (+ (+ (+ (- (* ?x823 ?x928) (* _a_4_ ?x1082)) ?x574) ?x1144) ?x1147) 0.0))))))))))
(assert
 (let ((?x1143 (* 2.0 l_0_2_10)))
 (let ((?x1407 (* ?x1143 l_0_2_7)))
 (let ((?x574 (* 2.0 _a_4_)))
 (let ((?x928 (+ (* (* 2.0 l_0_2_2) l_0_2_4) (* (* 2.0 l_0_2_3) l_0_2_5))))
 (let ((?x542 (- _a_1_)))
 (let ((?x1403 (- (- (* ?x542 ?x928) (* (* (* 2.0 _a_2_) l_0_2_1) l_0_2_4)) (* (* ?x574 l_0_2_1) l_0_2_2))))
 (let ((?x1406 (- (+ ?x1403 ?x574) (* _a_5_ (+ (* l_0_2_2 l_0_2_2) (* l_0_2_3 l_0_2_3))))))
 (= (+ ?x1406 ?x1407) 0.0)))))))))
(assert
 (let ((?x1211 (* (* 2.0 l_0_2_7) l_0_2_8)))
 (let ((?x1447 (- (* (- _a_1_) (+ (* l_0_2_2 l_0_2_2) (* l_0_2_3 l_0_2_3))) (* (* (* 2.0 _a_2_) l_0_2_1) l_0_2_2))))
 (= (+ (+ ?x1447 _a_4_) ?x1211) 0.0))))
(assert
 (let ((?x1467 (- (* (* (* (- 2.0) _a_0_) l_0_2_1) l_0_2_4) (* (* _a_5_ l_0_2_1) l_0_2_1))))
 (let ((?x1471 (- (- ?x1467 (* (* 6.0 l_0_2_10) l_0_2_7)) (* (* 2.0 l_0_2_13) l_0_2_16))))
 (= ?x1471 0.0))))
(assert
 (let ((?x1143 (* 2.0 l_0_2_10)))
 (let ((?x1407 (* ?x1143 l_0_2_7)))
 (let ((?x1081 (* l_0_2_6 l_0_2_6)))
 (let ((?x1082 (+ (+ (* l_0_2_4 l_0_2_4) (* l_0_2_5 l_0_2_5)) ?x1081)))
 (let ((?x1498 (+ (- (* (* (* (- 2.0) _a_3_) l_0_2_1) l_0_2_4) (* _a_5_ ?x1082)) ?x1407)))
 (= ?x1498 0.0)))))))
(assert
 (>= l_0_2_1 0.0))
(assert
 (>= l_0_2_3 0.0))
(assert
 (>= l_0_2_6 0.0))
(assert
 (>= l_0_2_7 0.0))
(assert
 (>= l_0_2_9 0.0))
(assert
 (>= l_0_2_12 0.0))
(assert
 (>= l_0_2_13 0.0))
(assert
 (>= l_0_2_15 0.0))
(assert
 (>= l_0_2_18 0.0))
(check-sat)
(get-model)